
******************************************************************************
This program contains Ipopt, a library for large-scale nonlinear optimization.
 Ipopt is released as open source code under the Eclipse Public License (EPL).
         For more information visit https://github.com/coin-or/Ipopt
******************************************************************************

This is Ipopt version 3.14.14, running with linear solver MUMPS 5.6.2.

Number of nonzeros in equality constraint Jacobian...:        0
Number of nonzeros in inequality constraint Jacobian.:        4
Number of nonzeros in Lagrangian Hessian.............:        3

Total number of variables............................:        3
                     variables with only lower bounds:        0
                variables with lower and upper bounds:        3
                     variables with only upper bounds:        0
Total number of equality constraints.................:        0
Total number of inequality constraints...............:        2
        inequality constraints with only lower bounds:        0
   inequality constraints with lower and upper bounds:        2
        inequality constraints with only upper bounds:        0

iter    objective    inf_pr   inf_du lg(mu)  ||d||  lg(rg) alpha_du alpha_pr  ls
   0  8.0000000e+00 0.00e+00 1.57e+00   0.0 0.00e+00    -  0.00e+00 0.00e+00   0
   1  1.3432173e+00 0.00e+00 1.06e+00   0.2 2.89e+00    -  8.37e-01 6.86e-01f  1
   2  2.7848231e-01 0.00e+00 5.22e-02  -1.1 6.91e-01    -  9.60e-01 1.00e+00f  1
   3  5.3499089e-02 0.00e+00 3.12e-03  -2.4 2.22e-01    -  1.00e+00 1.00e+00h  1
   4  1.2394407e-02 0.00e+00 9.68e-06  -4.0 1.10e-01    -  1.00e+00 1.00e+00h  1
   5  3.0962594e-03 0.00e+00 1.36e-07  -4.7 3.17e-01    -  1.00e+00 1.00e+00h  1
   6  7.7517437e-04 0.00e+00 2.16e-08  -5.3 3.33e-01    -  1.00e+00 1.00e+00h  1
   7  1.9407393e-04 0.00e+00 4.98e-09  -5.9 2.51e-01    -  1.00e+00 1.00e+00h  1
   8  4.8574316e-05 0.00e+00 8.93e-10  -6.5 1.74e-01    -  1.00e+00 1.00e+00h  1
   9  1.2142561e-05 0.00e+00 8.64e-11  -7.1 7.39e-02    -  1.00e+00 1.00e+00h  1
iter    objective    inf_pr   inf_du lg(mu)  ||d||  lg(rg) alpha_du alpha_pr  ls
  10  3.0198188e-06 0.00e+00 7.61e-11  -7.7 1.74e-01    -  1.00e+00 1.00e+00h  1
  11  7.3367847e-07 0.00e+00 5.85e-10  -8.3 1.02e+00    -  1.00e+00 1.00e+00h  1
  12  1.5713208e-07 0.00e+00 1.62e-09  -8.9 2.96e+00    -  1.00e+00 1.00e+00h  1
  13  1.3569909e-08 0.00e+00 2.80e-10  -9.5 9.06e-01    -  1.00e+00 1.00e+00h  1
  14 -2.2578831e-08 0.00e+00 8.62e-11 -10.1 2.12e-01    -  1.00e+00 1.00e+00h  1
  15 -3.1621329e-08 0.00e+00 1.87e-11 -10.7 4.53e-02    -  1.00e+00 1.00e+00h  1
  16 -3.3885042e-08 0.00e+00 4.44e-12 -11.3 1.06e-02    -  1.00e+00 1.00e+00h  1
  17 -3.4454556e-08 0.00e+00 1.45e-12 -14.3 3.44e-03    -  1.00e+00 1.00e+00h  1
  18 -3.4594427e-08 0.00e+00 2.00e-14 -14.3 6.83e-06    -  1.00e+00 1.00e+00h  1
  19 -3.4629377e-08 0.00e+00 9.86e-15 -14.3 3.41e-06    -  1.00e+00 1.00e+00h  1
iter    objective    inf_pr   inf_du lg(mu)  ||d||  lg(rg) alpha_du alpha_pr  ls
  20 -3.4638106e-08 0.00e+00 4.93e-15 -14.3 1.71e-06    -  1.00e+00 1.00e+00h  1
  21 -3.4640284e-08 0.00e+00 2.46e-15 -14.3 8.53e-07    -  1.00e+00 1.00e+00h  1
  22 -3.4640827e-08 0.00e+00 1.23e-15 -14.3 4.26e-07    -  1.00e+00 1.00e+00h  1
  23 -3.4640961e-08 0.00e+00 6.10e-16 -14.3 2.11e-07    -  1.00e+00 1.00e+00h  1
  24 -3.4640994e-08 0.00e+00 2.97e-16 -14.3 1.03e-07    -  1.00e+00 1.00e+00h  1
  25 -3.4641002e-08 0.00e+00 1.33e-16 -14.3 4.62e-08    -  1.00e+00 1.00e+00h  1

Number of Iterations....: 25

                                   (scaled)                 (unscaled)
Objective...............:  -3.4641002321306463e-08   -3.4641002321306463e-08
Dual infeasibility......:   1.3341632199087655e-16    1.3341632199087655e-16
Constraint violation....:   0.0000000000000000e+00    0.0000000000000000e+00
Variable bound violation:   9.9999985566241258e-09    9.9999985566241258e-09
Complementarity.........:   9.2719828135417921e-15    9.2719828135417921e-15
Overall NLP error.......:   9.2719828135417921e-15    9.2719828135417921e-15


Number of objective function evaluations             = 26
Number of objective gradient evaluations             = 26
Number of equality constraint evaluations            = 0
Number of inequality constraint evaluations          = 26
Number of equality constraint Jacobian evaluations   = 0
Number of inequality constraint Jacobian evaluations = 26
Number of Lagrangian Hessian evaluations             = 25
Total seconds in IPOPT                               = 0.012

EXIT: Optimal Solution Found.
